data/solutions/recovery/degenerate/intermediate/binding/degenerate_intermediate_instance38/10.sol
Elapsed time: 0.11
Upper bound: 296278.0
Planning weighted value: 14980987606.0
C[0]=296278.0
C[1]=295477.0
C[2]=295124.0
C[3]=295053.0
C[4]=294357.0
C[5]=292927.0
C[6]=292334.0
C[7]=291311.0
C[8]=289567.0
C[9]=287482.0
C[10]=285296.0
C[11]=285040.0
C[12]=284172.0
C[13]=0.0
C[14]=0.0
C[15]=0.0
y[0]=6
y[1]=12
y[2]=10
y[3]=0
y[4]=1
y[5]=10
y[6]=12
y[7]=6
y[8]=7
y[9]=1
y[10]=3
y[11]=12
y[12]=1
y[13]=5
y[14]=8
y[15]=5
y[16]=2
y[17]=10
y[18]=5
y[19]=9
y[20]=3
y[21]=2
y[22]=3
y[23]=8
y[24]=10
y[25]=11
y[26]=9
y[27]=8
y[28]=1
y[29]=4
y[30]=4
y[31]=11
y[32]=1
y[33]=1
y[34]=12
y[35]=6
y[36]=2
y[37]=5
y[38]=11
y[39]=3
y[40]=3
y[41]=8
y[42]=9
y[43]=9
y[44]=6
y[45]=6
y[46]=0
y[47]=2
y[48]=0
y[49]=9
y[50]=7
y[51]=0
y[52]=10
y[53]=7
y[54]=5
y[55]=7
y[56]=4
y[57]=11
y[58]=9
y[59]=12
y[60]=5
y[61]=4
y[62]=0
y[63]=7
y[64]=2
y[65]=8
