data/solutions/recovery/degenerate/intermediate/binding/degenerate_intermediate_instance38/10.log

Log started (V12.6.3.0) Sun Apr 22 12:34:41 2018

New value for default parallel thread count: 1

Problem '/tmp/tmpozHiGS.pyomo.lp' read.
Read time = 0.02 sec. (0.71 ticks)

Problem name         : /tmp/tmpozHiGS.pyomo.lp
Objective sense      : Minimize
Variables            :    1074  [Nneg: 1,  Binary: 1056,  General Integer: 17]
Objective nonzeros   :       1
Linear constraints   :     168  [Less: 82,  Equal: 86]
  Nonzeros           :   50853
  RHS nonzeros       :      67

Variables            : Min LB: 0.000000         Max UB: 1.000000       
Objective nonzeros   : Min   : 1.000000         Max   : 1.000000       
Linear constraints   :
  Nonzeros           : Min   : 1.000000         Max   : 117484.0       
  RHS nonzeros       : Min   : 1.000000         Max   : 1.000000       
Tried aggregator 2 times.
MIP Presolve eliminated 125 rows and 839 columns.
Aggregator did 13 substitutions.
Reduced MIP has 30 rows, 222 columns, and 455 nonzeros.
Reduced MIP has 221 binaries, 1 generals, 0 SOSs, and 0 indicators.
Presolve time = 0.00 sec. (3.92 ticks)
Found incumbent of value 1338490.000000 after 0.00 sec. (5.23 ticks)
Probing time = 0.00 sec. (0.30 ticks)
Cover probing fixed 0 vars, tightened 6 bounds.
Tried aggregator 1 time.
Reduced MIP has 30 rows, 222 columns, and 455 nonzeros.
Reduced MIP has 221 binaries, 1 generals, 0 SOSs, and 0 indicators.
Presolve time = 0.00 sec. (0.40 ticks)
Probing time = 0.00 sec. (0.28 ticks)
Clique table members: 17.
MIP emphasis: balance optimality and feasibility.
MIP search method: dynamic search.
Parallel mode: none, using 1 thread.
Root relaxation solution time = 0.00 sec. (0.38 ticks)

        Nodes                                         Cuts/
   Node  Left     Objective  IInf  Best Integer    Best Bound    ItCnt     Gap

*     0+    0                      1338490.0000   272563.0000            79.64%
      0     0   291109.0769    22  1338490.0000   291109.0769       60   78.25%
*     0+    0                       364252.0000   291109.0769            20.08%
      0     0   291110.0000    27   364252.0000      Cuts: 15       97   20.08%
*     0+    0                       363690.0000   291110.0000            19.96%
      0     0   291110.0000    40   363690.0000      Cuts: 27      207   19.96%
*     0+    0                       362034.0000   291110.0000            19.59%
*     0+    0                       336478.0000   291110.0000            13.48%
*     0+    0                       330293.0000   291110.0000            11.86%
*     0+    0                       324485.0000   291110.0000            10.29%
      0     2   291110.0000    23   324485.0000   291110.0000      207   10.29%
Elapsed time = 0.02 sec. (18.84 ticks, tree = 0.01 MB, solutions = 6)
*    10+   10                       320577.0000   291110.0000             9.19%
*    20+   14                       315336.0000   291110.0000             7.68%
*    40+   32                       314325.0000   291110.0000             7.39%
*    70+   62                       311977.0000   291110.0000             6.69%
*    80    69      integral     0   310323.0000   291110.0000      794    6.19%
*    90+   75                       308115.0000   291110.0000             5.52%
*   190+  163                       305779.0000   291110.0000             4.80%
*   210   156      integral     0   300425.0000   291110.0000     1296    3.10%
*   260+  193                       300406.0000   294357.0000             2.01%
*   300+  221                       300388.0000   294357.0000             2.01%
*   306   214      integral     0   299753.0000   294357.0000     1643    1.80%
*   481+  238                       297843.0000   295420.9639             0.81%
*   481+  158                       296968.0000   295873.6898             0.37%
*   481+  105                       296278.0000   296216.8863             0.02%

Clique cuts applied:  3
Cover cuts applied:  17
Implied bound cuts applied:  1
Mixed integer rounding cuts applied:  12

Root node processing (before b&c):
  Real time             =    0.02 sec. (18.98 ticks)
Sequential b&c:
  Real time             =    0.07 sec. (61.06 ticks)
                          ------------
Total (root+branch&cut) =    0.08 sec. (80.03 ticks)

Solution pool: 20 solutions saved.

MIP - Integer optimal solution:  Objective =  2.9627800000e+05
Solution time =    0.08 sec.  Iterations = 2972  Nodes = 481
Deterministic time = 80.04 ticks  (952.84 ticks/sec)


Incumbent solution written to file '/tmp/tmpDsw7zy.cplex.sol'.
